 200 31 
 19 90 66 47 86 90 6 58 16 83 28 60 
 32 58 7 9 77 84 97 81 46 25 19 63 
 80 1 29 10 82 45 37 
 27 
 1 2 3 4 5 6 7 8 10 11 12 13 
 14 15 16 17 19 20 21 22 23 25 26 27 
 28 29 31 
 25 
 1 2 3 4 5 7 8 9 10 11 12 13 
 14 15 16 17 18 20 23 24 25 26 28 30 
 31 
 10 
 3 5 6 14 19 23 24 28 29 31 
 8 
 2 7 12 15 17 20 28 31 
 11 
 1 6 7 9 15 16 18 21 22 26 30 
 16 
 2 4 5 6 7 8 9 11 15 22 23 25 
 27 28 29 31 
 15 
 5 8 11 12 13 14 17 19 21 22 24 25 
 26 30 31 
 14 
 2 3 5 8 9 11 12 18 21 22 24 25 
 26 31 
 8 
 6 11 14 16 19 21 26 31 
 31 
 1 2 3 4 5 6 7 8 9 10 11 12 
 13 14 15 16 17 18 19 20 21 22 23 24 
 25 26 27 28 29 30 31 
 10 
 1 2 3 8 13 14 16 18 22 23 
 14 
 1 5 6 9 13 15 18 20 22 23 24 25 
 28 31 
 23 
 1 2 3 4 5 6 7 8 9 10 12 13 
 15 16 17 18 19 20 23 24 26 29 30 
 3 
 9 10 24 
 4 
 1 5 12 29 
 9 
 9 10 15 16 19 22 24 28 30 
 6 
 3 15 24 27 28 29 
 17 
 1 2 5 8 12 14 15 16 20 21 23 24 
 25 27 29 30 31 
 22 
 3 4 6 7 8 9 10 11 12 13 14 15 
 16 18 19 20 22 23 24 26 28 30 
 27 
 1 2 3 4 5 6 7 8 9 10 11 12 
 14 15 16 17 18 19 20 23 24 25 26 28 
 29 30 31 
 20 
 1 2 4 5 8 9 10 12 13 14 18 20 
 21 22 23 24 25 28 29 31 
 12 
 4 10 11 12 15 17 18 19 20 22 23 31 
 12 
 4 6 8 9 11 12 15 16 18 20 23 28 
 3 
 9 17 20 
 15 
 4 5 6 10 14 16 17 18 19 21 22 23 
 28 29 31 
 10 
 1 2 7 13 18 22 23 25 29 31 
 8 
 2 5 6 8 10 18 21 30 
 26 
 2 3 5 6 7 8 10 11 12 13 14 15 
 16 17 18 19 20 21 22 23 24 26 28 29 
 30 31 
 30 
 1 2 3 4 5 6 7 8 9 10 11 12 
 13 14 15 16 17 18 19 20 21 22 23 24 
 26 27 28 29 30 31 
 6 
 3 4 8 25 29 30 
 23 
 1 2 3 6 7 9 11 12 13 14 15 17 
 19 20 21 22 24 25 27 28 29 30 31 
 8 
 2 7 10 13 16 17 19 26 
 15 
 2 6 7 11 12 13 15 18 19 20 21 23 
 26 27 31 
 9 
 6 7 12 16 17 18 26 28 31 
 3 
 9 12 17 
 11 
 2 5 7 11 12 16 17 19 20 23 31 
 13 
 3 4 5 6 7 9 10 12 13 16 17 24 
 28 
 12 
 2 5 7 9 11 12 13 18 24 25 29 30 
 3 
 2 20 24 
 4 
 3 4 12 29 
 21 
 1 3 4 5 6 8 9 11 12 13 14 15 
 16 20 21 22 25 28 29 30 31 
 20 
 1 2 5 6 7 10 11 12 13 14 16 18 
 20 23 24 25 26 27 30 31 
 23 
 2 4 6 7 9 10 11 13 14 15 17 18 
 20 21 22 23 25 26 27 28 29 30 31 
 16 
 3 4 9 10 13 16 17 19 21 22 23 24 
 28 29 30 31 
 28 
 1 2 4 5 6 7 8 9 10 12 13 14 
 15 16 17 18 19 20 21 22 23 24 25 26 
 28 29 30 31 
 22 
 1 2 3 4 5 7 8 9 12 13 16 17 
 18 19 21 23 26 27 28 29 30 31 
 20 
 1 3 4 6 7 10 12 13 14 15 17 18 
 19 20 21 22 25 26 29 31 
 28 
 1 2 3 4 5 6 7 8 10 11 12 13 
 15 16 17 18 19 20 21 22 23 24 25 26 
 27 28 29 30 
 26 
 1 2 3 4 6 7 8 9 10 11 13 14 
 15 16 18 19 20 21 22 23 24 27 28 29 
 30 31 
 4 
 1 7 17 19 
 17 
 3 5 6 7 10 14 16 19 21 22 23 24 
 25 26 27 30 31 
 24 
 2 3 4 6 7 9 10 11 12 13 14 15 
 16 17 19 20 21 22 23 27 28 29 30 31 
 20 
 4 5 6 7 9 10 12 13 14 15 19 22 
 24 25 26 27 28 29 30 31 
 16 
 1 2 3 4 6 7 12 13 18 21 22 23 
 24 29 30 31 
 22 
 1 2 3 4 6 7 8 9 12 14 15 17 
 18 19 22 24 26 27 28 29 30 31 
 8 
 1 2 5 12 22 24 28 30 
 16 
 1 2 3 5 6 7 9 10 12 15 16 18 
 20 23 27 29 
 8 
 1 3 6 15 20 26 28 31 
 22 
 2 4 5 6 8 9 10 11 12 13 14 15 
 16 17 22 23 24 25 26 28 29 31 
 22 
 1 2 3 4 5 7 11 12 13 14 15 16 
 17 19 20 22 23 24 27 28 29 31 
 21 
 3 4 5 7 8 10 12 13 14 15 17 18 
 19 20 21 24 25 26 27 28 31 
 17 
 1 2 4 5 6 8 9 10 13 15 16 20 
 22 23 26 29 30 
 28 
 1 2 3 4 5 6 7 8 10 11 12 13 
 14 15 16 17 18 20 21 22 24 25 26 27 
 28 29 30 31 
 19 
 1 4 5 6 7 8 11 15 16 17 18 19 
 22 23 24 25 26 29 31 
 11 
 13 15 17 18 19 20 23 24 27 28 29 
 22 
 1 2 4 5 6 7 8 9 10 11 14 15 
 16 17 18 19 21 24 26 28 29 31 
 10 
 2 6 8 9 14 17 18 20 23 27 
 13 
 1 6 9 11 14 17 19 20 23 27 28 29 
 31 
 21 
 1 2 3 4 5 6 7 8 10 11 12 17 
 19 21 22 24 25 27 28 29 30 
 4 
 5 13 22 24 
 24 
 1 2 3 4 5 6 10 11 13 14 15 16 
 17 18 19 21 22 23 25 26 27 28 30 31 
 2 
 3 29 
 7 
 2 4 17 18 21 28 30 
 31 
 1 2 3 4 5 6 7 8 9 10 11 12 
 13 14 15 16 17 18 19 20 21 22 23 24 
 25 26 27 28 29 30 31 
 16 
 2 4 5 7 11 12 14 16 17 18 19 22 
 23 24 28 29 
 21 
 1 2 3 4 5 7 10 11 15 16 17 19 
 20 21 22 23 24 25 26 28 29 
 28 
 1 2 3 4 6 7 8 9 11 12 13 15 
 16 17 18 19 20 21 22 23 24 25 26 27 
 28 29 30 31 
 12 
 6 11 12 14 18 19 22 24 25 27 28 29 
 29 
 1 2 3 4 5 6 7 8 9 11 12 13 
 14 15 16 17 18 19 20 21 22 23 24 26 
 27 28 29 30 31 
 16 
 1 3 4 5 6 8 11 12 14 15 17 20 
 24 26 27 29 
 28 
 1 2 3 4 6 7 8 9 10 11 12 13 
 14 15 16 17 18 19 20 21 22 23 24 25 
 26 27 28 31 
 22 
 3 4 5 7 8 10 12 14 15 17 18 19 
 20 21 22 23 24 25 26 27 30 31 
 10 
 2 12 13 15 16 19 21 22 23 31 
 6 
 6 7 9 16 24 29 
 27 
 1 2 4 5 6 7 8 9 10 11 12 14 
 15 16 18 19 20 21 22 23 24 25 26 27 
 29 30 31 
 17 
 1 2 6 7 8 11 13 14 16 18 19 20 
 21 22 23 26 27 
 9 
 5 8 13 15 19 23 24 27 29 
 8 
 2 7 11 14 18 22 23 26 
 16 
 1 4 6 7 8 9 10 12 13 17 19 21 
 25 27 29 30 
 27 
 1 2 3 4 5 6 7 8 9 10 11 12 
 14 15 16 17 18 19 20 23 24 25 26 27 
 28 30 31 
 18 
 1 4 5 6 7 9 10 11 13 15 17 18 
 19 23 25 27 28 29 
 27 
 1 2 3 4 5 6 8 9 11 12 13 14 
 15 16 17 18 19 20 21 22 24 25 26 27 
 28 30 31 
 22 
 2 3 5 7 8 10 11 12 13 14 16 18 
 19 20 22 23 24 25 26 27 29 31 
 25 
 1 2 3 4 5 6 7 8 10 11 12 13 
 14 15 16 17 20 21 22 23 24 25 26 27 
 30 
 12 
 3 7 10 12 15 17 18 20 22 23 24 30 
 26 
 1 3 5 6 7 8 9 10 11 13 15 16 
 17 18 19 20 21 22 23 25 26 27 28 29 
 30 31 
 17 
 1 2 4 7 8 12 13 14 15 17 24 25 
 26 27 28 29 31 
 26 
 1 2 3 4 5 6 8 9 10 11 12 13 
 15 16 17 18 19 20 21 23 24 27 28 29 
 30 31 
 12 
 8 9 12 14 16 17 19 20 27 28 29 30 
 26 
 1 2 3 5 6 7 8 9 10 11 12 13 
 14 16 17 19 20 21 22 23 24 25 26 27 
 30 31 
 2 
 2 3 
 6 
 6 9 17 19 29 30 
 7 
 3 10 12 13 17 22 25 
 14 
 3 5 6 8 12 13 14 15 16 18 23 25 
 27 30 
 30 
 1 2 3 4 5 6 7 8 9 10 11 12 
 14 15 16 17 18 19 20 21 22 23 24 25 
 26 27 28 29 30 31 
 13 
 3 8 9 14 16 17 21 23 25 26 29 30 
 31 
 20 
 1 3 4 5 6 7 9 10 12 14 15 16 
 18 20 23 24 25 29 30 31 
 7 
 2 4 6 14 22 23 28 
 10 
 5 15 17 18 22 24 27 28 29 30 
 27 
 1 3 4 5 6 7 8 9 10 11 12 13 
 14 15 17 18 20 21 22 23 25 26 27 28 
 29 30 31 
 28 
 1 2 3 4 6 7 8 9 10 11 12 14 
 15 16 17 18 19 20 21 23 24 25 26 27 
 28 29 30 31 
 9 
 4 11 15 19 21 23 24 27 28 
 25 
 1 2 3 5 6 7 9 10 11 12 14 15 
 16 17 19 20 21 24 25 26 27 28 29 30 
 31 
 3 
 7 14 27 
 14 
 3 5 6 9 12 16 17 18 21 22 24 27 
 29 30 
 9 
 6 8 10 11 15 17 24 27 28 
 2 
 5 14 
 30 
 1 2 3 4 5 6 7 9 10 11 12 13 
 14 15 16 17 18 19 20 21 22 23 24 25 
 26 27 28 29 30 31 
 15 
 2 3 6 10 12 13 15 16 18 21 22 24 
 25 29 30 
 22 
 2 3 5 6 7 9 10 11 12 13 15 18 
 20 21 22 23 24 25 27 28 30 31 
 9 
 2 12 13 16 19 20 25 26 28 
 15 
 1 3 6 8 13 14 15 16 17 19 20 21 
 22 26 30 
 22 
 5 6 7 8 9 11 12 13 14 15 17 18 
 19 20 21 22 24 25 26 28 29 30 
 17 
 4 5 8 9 11 12 13 16 18 20 21 22 
 23 25 26 27 29 
 31 
 1 2 3 4 5 6 7 8 9 10 11 12 
 13 14 15 16 17 18 19 20 21 22 23 24 
 25 26 27 28 29 30 31 
 21 
 1 2 4 5 7 8 9 10 11 12 14 17 
 18 22 24 25 26 27 28 30 31 
 29 
 1 2 3 5 6 7 8 9 10 11 12 13 
 14 15 16 18 19 20 21 22 23 24 25 26 
 27 28 29 30 31 
 23 
 1 2 3 4 5 6 7 8 9 12 13 17 
 18 19 20 21 22 23 24 25 26 28 29 
 17 
 2 4 5 6 7 8 9 10 11 12 14 18 
 20 21 29 30 31 
 20 
 1 4 7 8 9 10 11 12 13 14 16 17 
 19 23 24 25 27 28 29 31 
 24 
 1 2 3 4 5 6 7 11 12 13 15 16 
 17 18 20 22 23 24 25 26 27 28 30 31 
 7 
 2 3 4 11 17 21 24 
 21 
 2 5 6 7 8 10 12 15 16 17 18 19 
 20 21 23 24 25 27 28 29 30 
 24 
 1 2 3 4 5 7 9 10 11 12 13 14 
 16 18 19 20 22 23 25 26 27 28 29 31 
 29 
 1 2 3 4 5 6 7 8 9 10 11 12 
 13 15 16 17 18 19 20 21 22 23 24 25 
 26 27 28 29 31 
 11 
 5 7 8 9 11 16 17 18 21 24 25 
 24 
 2 3 5 7 8 9 10 11 13 14 15 16 
 17 18 20 21 22 23 24 25 28 29 30 31 
 31 
 1 2 3 4 5 6 7 8 9 10 11 12 
 13 14 15 16 17 18 19 20 21 22 23 24 
 25 26 27 28 29 30 31 
 11 
 5 6 7 8 11 13 16 17 21 22 25 
 6 
 1 6 9 24 25 28 
 21 
 1 2 3 4 5 7 10 11 13 15 16 17 
 18 20 23 24 25 26 27 29 30 
 21 
 1 3 4 5 6 7 8 11 12 13 15 17 
 20 21 23 24 25 26 27 29 31 
 22 
 2 4 5 6 7 10 12 13 14 16 18 19 
 20 21 22 24 25 26 28 29 30 31 
 19 
 1 3 8 9 11 12 13 14 16 17 18 20 
 22 24 26 27 29 30 31 
 18 
 1 2 3 5 6 7 8 9 10 14 16 17 
 20 22 23 25 27 31 
 28 
 1 2 3 4 5 6 7 8 9 10 12 13 
 14 15 16 17 18 20 21 22 23 24 25 26 
 27 28 29 30 
 22 
 1 3 4 5 6 7 8 9 10 11 12 14 
 17 18 19 21 22 23 24 28 29 30 
 27 
 1 2 3 4 5 6 7 8 9 12 13 14 
 16 17 18 19 20 21 22 23 24 26 27 28 
 29 30 31 
 5 
 1 10 11 29 31 
 26 
 1 2 3 4 5 6 7 8 9 10 11 12 
 13 16 17 18 20 22 24 25 26 27 28 29 
 30 31 
 10 
 6 11 14 17 19 20 25 26 27 28 
 4 
 12 16 17 27 
 11 
 1 5 7 9 15 18 20 21 24 28 30 
 27 
 1 2 3 6 7 8 9 10 11 13 14 15 
 16 17 18 19 20 21 22 23 24 25 27 28 
 29 30 31 
 15 
 5 6 7 10 13 16 18 19 22 23 27 28 
 29 30 31 
 24 
 1 2 3 4 5 7 11 13 14 15 16 17 
 18 19 20 21 22 23 24 26 27 28 30 31 
 27 
 1 2 3 4 5 6 7 8 9 10 12 13 
 15 16 18 19 20 21 22 23 24 26 27 28 
 29 30 31 
 6 
 3 6 7 15 23 25 
 29 
 1 2 3 4 5 6 7 8 9 10 12 14 
 15 16 17 18 19 20 21 22 23 24 25 26 
 27 28 29 30 31 
 20 
 1 2 3 4 5 7 8 9 14 15 16 17 
 18 21 23 24 25 26 29 30 
 17 
 1 3 4 5 8 10 11 14 16 19 20 21 
 24 26 27 29 30 
 6 
 6 9 16 18 22 23 
 14 
 1 5 7 8 10 11 13 19 20 21 23 28 
 29 31 
 8 
 3 4 14 17 22 24 26 30 
 6 
 1 13 15 22 27 28 
 9 
 2 6 8 11 13 17 18 21 26 
 31 
 1 2 3 4 5 6 7 8 9 10 11 12 
 13 14 15 16 17 18 19 20 21 22 23 24 
 25 26 27 28 29 30 31 
 23 
 1 2 3 5 6 7 8 9 10 11 13 17 
 18 19 20 21 22 23 24 26 28 30 31 
 13 
 1 2 5 6 9 10 16 17 20 21 24 27 
 29 
 10 
 3 8 9 17 19 20 22 23 26 29 
 25 
 1 2 3 4 5 6 10 11 12 14 15 16 
 17 18 19 20 21 22 23 24 26 27 28 29 
 30 
 11 
 3 7 8 12 13 14 20 21 24 28 31 
 25 
 1 3 5 6 7 8 9 10 11 12 13 15 
 16 17 18 19 21 22 24 25 26 27 28 29 
 30 
 20 
 2 3 4 5 8 10 11 12 14 15 17 18 
 19 21 23 24 26 27 28 31 
 24 
 1 3 4 5 7 8 9 10 11 12 13 14 
 15 16 17 19 20 24 25 27 28 29 30 31 
 3 
 13 21 28 
 14 
 3 5 7 9 11 12 14 15 17 20 21 22 
 24 28 
 26 
 1 3 5 6 7 8 9 10 11 12 14 15 
 17 18 19 20 21 22 23 24 26 27 28 29 
 30 31 
 7 
 2 8 13 15 19 23 24 
 11 
 1 5 7 8 10 12 16 22 23 25 31 
 9 
 3 6 7 11 19 20 21 29 30 
 29 
 1 2 3 4 5 6 7 8 9 10 11 12 
 13 14 15 16 17 18 20 21 22 23 24 25 
 27 28 29 30 31 
 26 
 1 2 3 4 5 6 8 9 10 11 12 13 
 14 15 17 19 20 21 22 23 24 25 26 27 
 28 31 
 14 
 5 6 7 8 11 12 16 17 19 21 22 27 
 28 31 
 22 
 1 3 4 6 10 11 12 13 14 15 16 17 
 20 21 24 25 26 27 28 29 30 31 
 27 
 1 2 3 4 5 6 7 8 10 11 12 13 
 14 16 18 19 20 21 22 23 24 25 26 27 
 28 29 30 
 6 
 6 8 12 18 21 29 
 2 
 13 21 
 6 
 5 8 15 22 27 31 
 19 
 2 3 5 6 7 8 9 10 12 14 15 16 
 20 23 24 25 26 27 31 
 6 
 7 8 16 20 23 25 
 7 
 8 11 12 14 21 24 30 
 11 
 5 7 12 15 16 17 21 25 26 27 31 
 3 
 17 20 25 
 19 
 1 2 4 5 7 8 9 10 12 15 16 18 
 20 24 25 26 28 29 30 
 17 
 1 2 4 7 8 9 11 12 14 16 19 23 
 24 25 26 27 31 
 12 
 1 5 7 12 13 16 17 20 21 22 26 30 
 4 
 7 14 21 24 
 14 
 1 4 6 8 9 10 14 17 18 20 24 25 
 27 30 
 12 
 6 7 14 15 16 17 21 23 26 27 30 31 
 